(set-logic HORN)
(declare-fun Start (Int Int Int Int Int Int Int Int Int Int Int Int Int Int Int Int ) Bool)
(declare-fun NT1 (Int Int Int Int Int Int Int Int Int Int Int Int Int Int Int Int ) Bool)
(declare-fun NT2 (Bool Bool Bool Bool Bool Bool Bool Bool Bool Bool Bool Bool Bool Bool Bool Bool ) Bool)
(declare-fun NT3 (Int Int Int Int Int Int Int Int Int Int Int Int Int Int Int Int ) Bool)
(declare-fun NT4 (Int Int Int Int Int Int Int Int Int Int Int Int Int Int Int Int ) Bool)
(declare-fun NT5 (Bool Bool Bool Bool Bool Bool Bool Bool Bool Bool Bool Bool Bool Bool Bool Bool ) Bool)
(declare-fun NT6 (Bool Bool Bool Bool Bool Bool Bool Bool Bool Bool Bool Bool Bool Bool Bool Bool ) Bool)
(declare-fun NT7 (Int Int Int Int Int Int Int Int Int Int Int Int Int Int Int Int ) Bool)
(assert (Start 0 0 1 2 -1 -1 1 0 -1 0 1 1 0 -1 0 1))
(assert (Start 0 0 0 0 1 0 0 0 0 1 1 0 0 -1 2 0))
(assert (Start 0 1 0 -1 0 0 1 0 0 1 1 1 0 -1 0 -1))
(assert (Start 0 0 0 0 -1 0 0 0 0 1 2 1 -1 -3 0 -2))
(assert (Start 0 0 0 0 -1 0 2 -1 -1 1 1 1 0 -3 1 0))
(assert (Start 0 0 0 0 0 0 0 0 0 0 0 0 0 0 0 0))
(assert (Start 1 1 1 1 1 1 1 1 1 1 1 1 1 1 1 1))
(assert (forall ((x_0_0 Int) (x_0_1 Int) (x_0_2 Int) (x_0_3 Int) (x_0_4 Int) (x_0_5 Int) (x_0_6 Int) (x_0_7 Int) (x_0_8 Int) (x_0_9 Int) (x_0_10 Int) (x_0_11 Int) (x_0_12 Int) (x_0_13 Int) (x_0_14 Int) (x_0_15 Int) (x_1_0 Int) (x_1_1 Int) (x_1_2 Int) (x_1_3 Int) (x_1_4 Int) (x_1_5 Int) (x_1_6 Int) (x_1_7 Int) (x_1_8 Int) (x_1_9 Int) (x_1_10 Int) (x_1_11 Int) (x_1_12 Int) (x_1_13 Int) (x_1_14 Int) (x_1_15 Int) )
 (=> (and (NT1 x_0_0 x_0_1 x_0_2 x_0_3 x_0_4 x_0_5 x_0_6 x_0_7 x_0_8 x_0_9 x_0_10 x_0_11 x_0_12 x_0_13 x_0_14 x_0_15) (NT1 x_1_0 x_1_1 x_1_2 x_1_3 x_1_4 x_1_5 x_1_6 x_1_7 x_1_8 x_1_9 x_1_10 x_1_11 x_1_12 x_1_13 x_1_14 x_1_15) ) (Start (+ x_0_0 x_1_0) (+ x_0_1 x_1_1) (+ x_0_2 x_1_2) (+ x_0_3 x_1_3) (+ x_0_4 x_1_4) (+ x_0_5 x_1_5) (+ x_0_6 x_1_6) (+ x_0_7 x_1_7) (+ x_0_8 x_1_8) (+ x_0_9 x_1_9) (+ x_0_10 x_1_10) (+ x_0_11 x_1_11) (+ x_0_12 x_1_12) (+ x_0_13 x_1_13) (+ x_0_14 x_1_14) (+ x_0_15 x_1_15)))))

(assert (forall ((x_0_0 Bool) (x_0_1 Bool) (x_0_2 Bool) (x_0_3 Bool) (x_0_4 Bool) (x_0_5 Bool) (x_0_6 Bool) (x_0_7 Bool) (x_0_8 Bool) (x_0_9 Bool) (x_0_10 Bool) (x_0_11 Bool) (x_0_12 Bool) (x_0_13 Bool) (x_0_14 Bool) (x_0_15 Bool) (x_1_0 Int) (x_1_1 Int) (x_1_2 Int) (x_1_3 Int) (x_1_4 Int) (x_1_5 Int) (x_1_6 Int) (x_1_7 Int) (x_1_8 Int) (x_1_9 Int) (x_1_10 Int) (x_1_11 Int) (x_1_12 Int) (x_1_13 Int) (x_1_14 Int) (x_1_15 Int) (x_2_0 Int) (x_2_1 Int) (x_2_2 Int) (x_2_3 Int) (x_2_4 Int) (x_2_5 Int) (x_2_6 Int) (x_2_7 Int) (x_2_8 Int) (x_2_9 Int) (x_2_10 Int) (x_2_11 Int) (x_2_12 Int) (x_2_13 Int) (x_2_14 Int) (x_2_15 Int) )
 (=> (and (NT2 x_0_0 x_0_1 x_0_2 x_0_3 x_0_4 x_0_5 x_0_6 x_0_7 x_0_8 x_0_9 x_0_10 x_0_11 x_0_12 x_0_13 x_0_14 x_0_15) (NT1 x_1_0 x_1_1 x_1_2 x_1_3 x_1_4 x_1_5 x_1_6 x_1_7 x_1_8 x_1_9 x_1_10 x_1_11 x_1_12 x_1_13 x_1_14 x_1_15) (NT1 x_2_0 x_2_1 x_2_2 x_2_3 x_2_4 x_2_5 x_2_6 x_2_7 x_2_8 x_2_9 x_2_10 x_2_11 x_2_12 x_2_13 x_2_14 x_2_15) ) (Start (ite x_0_0 x_1_0 x_2_0) (ite x_0_1 x_1_1 x_2_1) (ite x_0_2 x_1_2 x_2_2) (ite x_0_3 x_1_3 x_2_3) (ite x_0_4 x_1_4 x_2_4) (ite x_0_5 x_1_5 x_2_5) (ite x_0_6 x_1_6 x_2_6) (ite x_0_7 x_1_7 x_2_7) (ite x_0_8 x_1_8 x_2_8) (ite x_0_9 x_1_9 x_2_9) (ite x_0_10 x_1_10 x_2_10) (ite x_0_11 x_1_11 x_2_11) (ite x_0_12 x_1_12 x_2_12) (ite x_0_13 x_1_13 x_2_13) (ite x_0_14 x_1_14 x_2_14) (ite x_0_15 x_1_15 x_2_15)))))

(assert (forall ((x_0_0 Int) (x_0_1 Int) (x_0_2 Int) (x_0_3 Int) (x_0_4 Int) (x_0_5 Int) (x_0_6 Int) (x_0_7 Int) (x_0_8 Int) (x_0_9 Int) (x_0_10 Int) (x_0_11 Int) (x_0_12 Int) (x_0_13 Int) (x_0_14 Int) (x_0_15 Int) (x_1_0 Int) (x_1_1 Int) (x_1_2 Int) (x_1_3 Int) (x_1_4 Int) (x_1_5 Int) (x_1_6 Int) (x_1_7 Int) (x_1_8 Int) (x_1_9 Int) (x_1_10 Int) (x_1_11 Int) (x_1_12 Int) (x_1_13 Int) (x_1_14 Int) (x_1_15 Int) )
 (=> (and (NT3 x_0_0 x_0_1 x_0_2 x_0_3 x_0_4 x_0_5 x_0_6 x_0_7 x_0_8 x_0_9 x_0_10 x_0_11 x_0_12 x_0_13 x_0_14 x_0_15) (NT1 x_1_0 x_1_1 x_1_2 x_1_3 x_1_4 x_1_5 x_1_6 x_1_7 x_1_8 x_1_9 x_1_10 x_1_11 x_1_12 x_1_13 x_1_14 x_1_15) ) (Start (+ x_0_0 x_1_0) (+ x_0_1 x_1_1) (+ x_0_2 x_1_2) (+ x_0_3 x_1_3) (+ x_0_4 x_1_4) (+ x_0_5 x_1_5) (+ x_0_6 x_1_6) (+ x_0_7 x_1_7) (+ x_0_8 x_1_8) (+ x_0_9 x_1_9) (+ x_0_10 x_1_10) (+ x_0_11 x_1_11) (+ x_0_12 x_1_12) (+ x_0_13 x_1_13) (+ x_0_14 x_1_14) (+ x_0_15 x_1_15)))))

(assert (forall ((x_0_0 Int) (x_0_1 Int) (x_0_2 Int) (x_0_3 Int) (x_0_4 Int) (x_0_5 Int) (x_0_6 Int) (x_0_7 Int) (x_0_8 Int) (x_0_9 Int) (x_0_10 Int) (x_0_11 Int) (x_0_12 Int) (x_0_13 Int) (x_0_14 Int) (x_0_15 Int) (x_1_0 Int) (x_1_1 Int) (x_1_2 Int) (x_1_3 Int) (x_1_4 Int) (x_1_5 Int) (x_1_6 Int) (x_1_7 Int) (x_1_8 Int) (x_1_9 Int) (x_1_10 Int) (x_1_11 Int) (x_1_12 Int) (x_1_13 Int) (x_1_14 Int) (x_1_15 Int) )
 (=> (and (NT4 x_0_0 x_0_1 x_0_2 x_0_3 x_0_4 x_0_5 x_0_6 x_0_7 x_0_8 x_0_9 x_0_10 x_0_11 x_0_12 x_0_13 x_0_14 x_0_15) (NT1 x_1_0 x_1_1 x_1_2 x_1_3 x_1_4 x_1_5 x_1_6 x_1_7 x_1_8 x_1_9 x_1_10 x_1_11 x_1_12 x_1_13 x_1_14 x_1_15) ) (Start (+ x_0_0 x_1_0) (+ x_0_1 x_1_1) (+ x_0_2 x_1_2) (+ x_0_3 x_1_3) (+ x_0_4 x_1_4) (+ x_0_5 x_1_5) (+ x_0_6 x_1_6) (+ x_0_7 x_1_7) (+ x_0_8 x_1_8) (+ x_0_9 x_1_9) (+ x_0_10 x_1_10) (+ x_0_11 x_1_11) (+ x_0_12 x_1_12) (+ x_0_13 x_1_13) (+ x_0_14 x_1_14) (+ x_0_15 x_1_15)))))

(assert (forall ((x_0_0 Int) (x_0_1 Int) (x_0_2 Int) (x_0_3 Int) (x_0_4 Int) (x_0_5 Int) (x_0_6 Int) (x_0_7 Int) (x_0_8 Int) (x_0_9 Int) (x_0_10 Int) (x_0_11 Int) (x_0_12 Int) (x_0_13 Int) (x_0_14 Int) (x_0_15 Int) (x_1_0 Int) (x_1_1 Int) (x_1_2 Int) (x_1_3 Int) (x_1_4 Int) (x_1_5 Int) (x_1_6 Int) (x_1_7 Int) (x_1_8 Int) (x_1_9 Int) (x_1_10 Int) (x_1_11 Int) (x_1_12 Int) (x_1_13 Int) (x_1_14 Int) (x_1_15 Int) )
 (=> (and (NT3 x_0_0 x_0_1 x_0_2 x_0_3 x_0_4 x_0_5 x_0_6 x_0_7 x_0_8 x_0_9 x_0_10 x_0_11 x_0_12 x_0_13 x_0_14 x_0_15) (NT3 x_1_0 x_1_1 x_1_2 x_1_3 x_1_4 x_1_5 x_1_6 x_1_7 x_1_8 x_1_9 x_1_10 x_1_11 x_1_12 x_1_13 x_1_14 x_1_15) ) (Start (+ x_0_0 x_1_0) (+ x_0_1 x_1_1) (+ x_0_2 x_1_2) (+ x_0_3 x_1_3) (+ x_0_4 x_1_4) (+ x_0_5 x_1_5) (+ x_0_6 x_1_6) (+ x_0_7 x_1_7) (+ x_0_8 x_1_8) (+ x_0_9 x_1_9) (+ x_0_10 x_1_10) (+ x_0_11 x_1_11) (+ x_0_12 x_1_12) (+ x_0_13 x_1_13) (+ x_0_14 x_1_14) (+ x_0_15 x_1_15)))))

(assert (forall ((x_0_0 Bool) (x_0_1 Bool) (x_0_2 Bool) (x_0_3 Bool) (x_0_4 Bool) (x_0_5 Bool) (x_0_6 Bool) (x_0_7 Bool) (x_0_8 Bool) (x_0_9 Bool) (x_0_10 Bool) (x_0_11 Bool) (x_0_12 Bool) (x_0_13 Bool) (x_0_14 Bool) (x_0_15 Bool) (x_1_0 Int) (x_1_1 Int) (x_1_2 Int) (x_1_3 Int) (x_1_4 Int) (x_1_5 Int) (x_1_6 Int) (x_1_7 Int) (x_1_8 Int) (x_1_9 Int) (x_1_10 Int) (x_1_11 Int) (x_1_12 Int) (x_1_13 Int) (x_1_14 Int) (x_1_15 Int) (x_2_0 Int) (x_2_1 Int) (x_2_2 Int) (x_2_3 Int) (x_2_4 Int) (x_2_5 Int) (x_2_6 Int) (x_2_7 Int) (x_2_8 Int) (x_2_9 Int) (x_2_10 Int) (x_2_11 Int) (x_2_12 Int) (x_2_13 Int) (x_2_14 Int) (x_2_15 Int) )
 (=> (and (NT2 x_0_0 x_0_1 x_0_2 x_0_3 x_0_4 x_0_5 x_0_6 x_0_7 x_0_8 x_0_9 x_0_10 x_0_11 x_0_12 x_0_13 x_0_14 x_0_15) (NT3 x_1_0 x_1_1 x_1_2 x_1_3 x_1_4 x_1_5 x_1_6 x_1_7 x_1_8 x_1_9 x_1_10 x_1_11 x_1_12 x_1_13 x_1_14 x_1_15) (NT1 x_2_0 x_2_1 x_2_2 x_2_3 x_2_4 x_2_5 x_2_6 x_2_7 x_2_8 x_2_9 x_2_10 x_2_11 x_2_12 x_2_13 x_2_14 x_2_15) ) (Start (ite x_0_0 x_1_0 x_2_0) (ite x_0_1 x_1_1 x_2_1) (ite x_0_2 x_1_2 x_2_2) (ite x_0_3 x_1_3 x_2_3) (ite x_0_4 x_1_4 x_2_4) (ite x_0_5 x_1_5 x_2_5) (ite x_0_6 x_1_6 x_2_6) (ite x_0_7 x_1_7 x_2_7) (ite x_0_8 x_1_8 x_2_8) (ite x_0_9 x_1_9 x_2_9) (ite x_0_10 x_1_10 x_2_10) (ite x_0_11 x_1_11 x_2_11) (ite x_0_12 x_1_12 x_2_12) (ite x_0_13 x_1_13 x_2_13) (ite x_0_14 x_1_14 x_2_14) (ite x_0_15 x_1_15 x_2_15)))))

(assert (forall ((x_0_0 Bool) (x_0_1 Bool) (x_0_2 Bool) (x_0_3 Bool) (x_0_4 Bool) (x_0_5 Bool) (x_0_6 Bool) (x_0_7 Bool) (x_0_8 Bool) (x_0_9 Bool) (x_0_10 Bool) (x_0_11 Bool) (x_0_12 Bool) (x_0_13 Bool) (x_0_14 Bool) (x_0_15 Bool) (x_1_0 Int) (x_1_1 Int) (x_1_2 Int) (x_1_3 Int) (x_1_4 Int) (x_1_5 Int) (x_1_6 Int) (x_1_7 Int) (x_1_8 Int) (x_1_9 Int) (x_1_10 Int) (x_1_11 Int) (x_1_12 Int) (x_1_13 Int) (x_1_14 Int) (x_1_15 Int) (x_2_0 Int) (x_2_1 Int) (x_2_2 Int) (x_2_3 Int) (x_2_4 Int) (x_2_5 Int) (x_2_6 Int) (x_2_7 Int) (x_2_8 Int) (x_2_9 Int) (x_2_10 Int) (x_2_11 Int) (x_2_12 Int) (x_2_13 Int) (x_2_14 Int) (x_2_15 Int) )
 (=> (and (NT5 x_0_0 x_0_1 x_0_2 x_0_3 x_0_4 x_0_5 x_0_6 x_0_7 x_0_8 x_0_9 x_0_10 x_0_11 x_0_12 x_0_13 x_0_14 x_0_15) (NT1 x_1_0 x_1_1 x_1_2 x_1_3 x_1_4 x_1_5 x_1_6 x_1_7 x_1_8 x_1_9 x_1_10 x_1_11 x_1_12 x_1_13 x_1_14 x_1_15) (NT1 x_2_0 x_2_1 x_2_2 x_2_3 x_2_4 x_2_5 x_2_6 x_2_7 x_2_8 x_2_9 x_2_10 x_2_11 x_2_12 x_2_13 x_2_14 x_2_15) ) (Start (ite x_0_0 x_1_0 x_2_0) (ite x_0_1 x_1_1 x_2_1) (ite x_0_2 x_1_2 x_2_2) (ite x_0_3 x_1_3 x_2_3) (ite x_0_4 x_1_4 x_2_4) (ite x_0_5 x_1_5 x_2_5) (ite x_0_6 x_1_6 x_2_6) (ite x_0_7 x_1_7 x_2_7) (ite x_0_8 x_1_8 x_2_8) (ite x_0_9 x_1_9 x_2_9) (ite x_0_10 x_1_10 x_2_10) (ite x_0_11 x_1_11 x_2_11) (ite x_0_12 x_1_12 x_2_12) (ite x_0_13 x_1_13 x_2_13) (ite x_0_14 x_1_14 x_2_14) (ite x_0_15 x_1_15 x_2_15)))))

(assert (forall ((x_0_0 Bool) (x_0_1 Bool) (x_0_2 Bool) (x_0_3 Bool) (x_0_4 Bool) (x_0_5 Bool) (x_0_6 Bool) (x_0_7 Bool) (x_0_8 Bool) (x_0_9 Bool) (x_0_10 Bool) (x_0_11 Bool) (x_0_12 Bool) (x_0_13 Bool) (x_0_14 Bool) (x_0_15 Bool) (x_1_0 Int) (x_1_1 Int) (x_1_2 Int) (x_1_3 Int) (x_1_4 Int) (x_1_5 Int) (x_1_6 Int) (x_1_7 Int) (x_1_8 Int) (x_1_9 Int) (x_1_10 Int) (x_1_11 Int) (x_1_12 Int) (x_1_13 Int) (x_1_14 Int) (x_1_15 Int) (x_2_0 Int) (x_2_1 Int) (x_2_2 Int) (x_2_3 Int) (x_2_4 Int) (x_2_5 Int) (x_2_6 Int) (x_2_7 Int) (x_2_8 Int) (x_2_9 Int) (x_2_10 Int) (x_2_11 Int) (x_2_12 Int) (x_2_13 Int) (x_2_14 Int) (x_2_15 Int) )
 (=> (and (NT2 x_0_0 x_0_1 x_0_2 x_0_3 x_0_4 x_0_5 x_0_6 x_0_7 x_0_8 x_0_9 x_0_10 x_0_11 x_0_12 x_0_13 x_0_14 x_0_15) (NT4 x_1_0 x_1_1 x_1_2 x_1_3 x_1_4 x_1_5 x_1_6 x_1_7 x_1_8 x_1_9 x_1_10 x_1_11 x_1_12 x_1_13 x_1_14 x_1_15) (NT1 x_2_0 x_2_1 x_2_2 x_2_3 x_2_4 x_2_5 x_2_6 x_2_7 x_2_8 x_2_9 x_2_10 x_2_11 x_2_12 x_2_13 x_2_14 x_2_15) ) (Start (ite x_0_0 x_1_0 x_2_0) (ite x_0_1 x_1_1 x_2_1) (ite x_0_2 x_1_2 x_2_2) (ite x_0_3 x_1_3 x_2_3) (ite x_0_4 x_1_4 x_2_4) (ite x_0_5 x_1_5 x_2_5) (ite x_0_6 x_1_6 x_2_6) (ite x_0_7 x_1_7 x_2_7) (ite x_0_8 x_1_8 x_2_8) (ite x_0_9 x_1_9 x_2_9) (ite x_0_10 x_1_10 x_2_10) (ite x_0_11 x_1_11 x_2_11) (ite x_0_12 x_1_12 x_2_12) (ite x_0_13 x_1_13 x_2_13) (ite x_0_14 x_1_14 x_2_14) (ite x_0_15 x_1_15 x_2_15)))))

(assert (forall ((x_0_0 Bool) (x_0_1 Bool) (x_0_2 Bool) (x_0_3 Bool) (x_0_4 Bool) (x_0_5 Bool) (x_0_6 Bool) (x_0_7 Bool) (x_0_8 Bool) (x_0_9 Bool) (x_0_10 Bool) (x_0_11 Bool) (x_0_12 Bool) (x_0_13 Bool) (x_0_14 Bool) (x_0_15 Bool) (x_1_0 Int) (x_1_1 Int) (x_1_2 Int) (x_1_3 Int) (x_1_4 Int) (x_1_5 Int) (x_1_6 Int) (x_1_7 Int) (x_1_8 Int) (x_1_9 Int) (x_1_10 Int) (x_1_11 Int) (x_1_12 Int) (x_1_13 Int) (x_1_14 Int) (x_1_15 Int) (x_2_0 Int) (x_2_1 Int) (x_2_2 Int) (x_2_3 Int) (x_2_4 Int) (x_2_5 Int) (x_2_6 Int) (x_2_7 Int) (x_2_8 Int) (x_2_9 Int) (x_2_10 Int) (x_2_11 Int) (x_2_12 Int) (x_2_13 Int) (x_2_14 Int) (x_2_15 Int) )
 (=> (and (NT6 x_0_0 x_0_1 x_0_2 x_0_3 x_0_4 x_0_5 x_0_6 x_0_7 x_0_8 x_0_9 x_0_10 x_0_11 x_0_12 x_0_13 x_0_14 x_0_15) (NT1 x_1_0 x_1_1 x_1_2 x_1_3 x_1_4 x_1_5 x_1_6 x_1_7 x_1_8 x_1_9 x_1_10 x_1_11 x_1_12 x_1_13 x_1_14 x_1_15) (NT1 x_2_0 x_2_1 x_2_2 x_2_3 x_2_4 x_2_5 x_2_6 x_2_7 x_2_8 x_2_9 x_2_10 x_2_11 x_2_12 x_2_13 x_2_14 x_2_15) ) (Start (ite x_0_0 x_1_0 x_2_0) (ite x_0_1 x_1_1 x_2_1) (ite x_0_2 x_1_2 x_2_2) (ite x_0_3 x_1_3 x_2_3) (ite x_0_4 x_1_4 x_2_4) (ite x_0_5 x_1_5 x_2_5) (ite x_0_6 x_1_6 x_2_6) (ite x_0_7 x_1_7 x_2_7) (ite x_0_8 x_1_8 x_2_8) (ite x_0_9 x_1_9 x_2_9) (ite x_0_10 x_1_10 x_2_10) (ite x_0_11 x_1_11 x_2_11) (ite x_0_12 x_1_12 x_2_12) (ite x_0_13 x_1_13 x_2_13) (ite x_0_14 x_1_14 x_2_14) (ite x_0_15 x_1_15 x_2_15)))))

(assert (forall ((x_0_0 Int) (x_0_1 Int) (x_0_2 Int) (x_0_3 Int) (x_0_4 Int) (x_0_5 Int) (x_0_6 Int) (x_0_7 Int) (x_0_8 Int) (x_0_9 Int) (x_0_10 Int) (x_0_11 Int) (x_0_12 Int) (x_0_13 Int) (x_0_14 Int) (x_0_15 Int) (x_1_0 Int) (x_1_1 Int) (x_1_2 Int) (x_1_3 Int) (x_1_4 Int) (x_1_5 Int) (x_1_6 Int) (x_1_7 Int) (x_1_8 Int) (x_1_9 Int) (x_1_10 Int) (x_1_11 Int) (x_1_12 Int) (x_1_13 Int) (x_1_14 Int) (x_1_15 Int) )
 (=> (and (NT7 x_0_0 x_0_1 x_0_2 x_0_3 x_0_4 x_0_5 x_0_6 x_0_7 x_0_8 x_0_9 x_0_10 x_0_11 x_0_12 x_0_13 x_0_14 x_0_15) (NT1 x_1_0 x_1_1 x_1_2 x_1_3 x_1_4 x_1_5 x_1_6 x_1_7 x_1_8 x_1_9 x_1_10 x_1_11 x_1_12 x_1_13 x_1_14 x_1_15) ) (Start (+ x_0_0 x_1_0) (+ x_0_1 x_1_1) (+ x_0_2 x_1_2) (+ x_0_3 x_1_3) (+ x_0_4 x_1_4) (+ x_0_5 x_1_5) (+ x_0_6 x_1_6) (+ x_0_7 x_1_7) (+ x_0_8 x_1_8) (+ x_0_9 x_1_9) (+ x_0_10 x_1_10) (+ x_0_11 x_1_11) (+ x_0_12 x_1_12) (+ x_0_13 x_1_13) (+ x_0_14 x_1_14) (+ x_0_15 x_1_15)))))

(assert (NT1 0 0 0 0 0 0 0 0 0 0 0 0 0 0 0 0))
(assert (NT1 1 1 1 1 1 1 1 1 1 1 1 1 1 1 1 1))
(assert (forall ((x_0_0 Int) (x_0_1 Int) (x_0_2 Int) (x_0_3 Int) (x_0_4 Int) (x_0_5 Int) (x_0_6 Int) (x_0_7 Int) (x_0_8 Int) (x_0_9 Int) (x_0_10 Int) (x_0_11 Int) (x_0_12 Int) (x_0_13 Int) (x_0_14 Int) (x_0_15 Int) (x_1_0 Int) (x_1_1 Int) (x_1_2 Int) (x_1_3 Int) (x_1_4 Int) (x_1_5 Int) (x_1_6 Int) (x_1_7 Int) (x_1_8 Int) (x_1_9 Int) (x_1_10 Int) (x_1_11 Int) (x_1_12 Int) (x_1_13 Int) (x_1_14 Int) (x_1_15 Int) )
 (=> (and (NT1 x_0_0 x_0_1 x_0_2 x_0_3 x_0_4 x_0_5 x_0_6 x_0_7 x_0_8 x_0_9 x_0_10 x_0_11 x_0_12 x_0_13 x_0_14 x_0_15) (NT1 x_1_0 x_1_1 x_1_2 x_1_3 x_1_4 x_1_5 x_1_6 x_1_7 x_1_8 x_1_9 x_1_10 x_1_11 x_1_12 x_1_13 x_1_14 x_1_15) ) (NT1 (+ x_0_0 x_1_0) (+ x_0_1 x_1_1) (+ x_0_2 x_1_2) (+ x_0_3 x_1_3) (+ x_0_4 x_1_4) (+ x_0_5 x_1_5) (+ x_0_6 x_1_6) (+ x_0_7 x_1_7) (+ x_0_8 x_1_8) (+ x_0_9 x_1_9) (+ x_0_10 x_1_10) (+ x_0_11 x_1_11) (+ x_0_12 x_1_12) (+ x_0_13 x_1_13) (+ x_0_14 x_1_14) (+ x_0_15 x_1_15)))))

(assert (forall ((x_0_0 Int) (x_0_1 Int) (x_0_2 Int) (x_0_3 Int) (x_0_4 Int) (x_0_5 Int) (x_0_6 Int) (x_0_7 Int) (x_0_8 Int) (x_0_9 Int) (x_0_10 Int) (x_0_11 Int) (x_0_12 Int) (x_0_13 Int) (x_0_14 Int) (x_0_15 Int) (x_1_0 Int) (x_1_1 Int) (x_1_2 Int) (x_1_3 Int) (x_1_4 Int) (x_1_5 Int) (x_1_6 Int) (x_1_7 Int) (x_1_8 Int) (x_1_9 Int) (x_1_10 Int) (x_1_11 Int) (x_1_12 Int) (x_1_13 Int) (x_1_14 Int) (x_1_15 Int) )
 (=> (and (NT1 x_0_0 x_0_1 x_0_2 x_0_3 x_0_4 x_0_5 x_0_6 x_0_7 x_0_8 x_0_9 x_0_10 x_0_11 x_0_12 x_0_13 x_0_14 x_0_15) (NT1 x_1_0 x_1_1 x_1_2 x_1_3 x_1_4 x_1_5 x_1_6 x_1_7 x_1_8 x_1_9 x_1_10 x_1_11 x_1_12 x_1_13 x_1_14 x_1_15) ) (NT2 (<= x_0_0 x_1_0) (<= x_0_1 x_1_1) (<= x_0_2 x_1_2) (<= x_0_3 x_1_3) (<= x_0_4 x_1_4) (<= x_0_5 x_1_5) (<= x_0_6 x_1_6) (<= x_0_7 x_1_7) (<= x_0_8 x_1_8) (<= x_0_9 x_1_9) (<= x_0_10 x_1_10) (<= x_0_11 x_1_11) (<= x_0_12 x_1_12) (<= x_0_13 x_1_13) (<= x_0_14 x_1_14) (<= x_0_15 x_1_15)))))

(assert (forall ((x_0_0 Bool) (x_0_1 Bool) (x_0_2 Bool) (x_0_3 Bool) (x_0_4 Bool) (x_0_5 Bool) (x_0_6 Bool) (x_0_7 Bool) (x_0_8 Bool) (x_0_9 Bool) (x_0_10 Bool) (x_0_11 Bool) (x_0_12 Bool) (x_0_13 Bool) (x_0_14 Bool) (x_0_15 Bool) )
 (=> (and (NT2 x_0_0 x_0_1 x_0_2 x_0_3 x_0_4 x_0_5 x_0_6 x_0_7 x_0_8 x_0_9 x_0_10 x_0_11 x_0_12 x_0_13 x_0_14 x_0_15) ) (NT2 (not x_0_0) (not x_0_1) (not x_0_2) (not x_0_3) (not x_0_4) (not x_0_5) (not x_0_6) (not x_0_7) (not x_0_8) (not x_0_9) (not x_0_10) (not x_0_11) (not x_0_12) (not x_0_13) (not x_0_14) (not x_0_15)))))

(assert (forall ((x_0_0 Bool) (x_0_1 Bool) (x_0_2 Bool) (x_0_3 Bool) (x_0_4 Bool) (x_0_5 Bool) (x_0_6 Bool) (x_0_7 Bool) (x_0_8 Bool) (x_0_9 Bool) (x_0_10 Bool) (x_0_11 Bool) (x_0_12 Bool) (x_0_13 Bool) (x_0_14 Bool) (x_0_15 Bool) (x_1_0 Bool) (x_1_1 Bool) (x_1_2 Bool) (x_1_3 Bool) (x_1_4 Bool) (x_1_5 Bool) (x_1_6 Bool) (x_1_7 Bool) (x_1_8 Bool) (x_1_9 Bool) (x_1_10 Bool) (x_1_11 Bool) (x_1_12 Bool) (x_1_13 Bool) (x_1_14 Bool) (x_1_15 Bool) )
 (=> (and (NT2 x_0_0 x_0_1 x_0_2 x_0_3 x_0_4 x_0_5 x_0_6 x_0_7 x_0_8 x_0_9 x_0_10 x_0_11 x_0_12 x_0_13 x_0_14 x_0_15) (NT2 x_1_0 x_1_1 x_1_2 x_1_3 x_1_4 x_1_5 x_1_6 x_1_7 x_1_8 x_1_9 x_1_10 x_1_11 x_1_12 x_1_13 x_1_14 x_1_15) ) (NT2 (and x_0_0 x_1_0) (and x_0_1 x_1_1) (and x_0_2 x_1_2) (and x_0_3 x_1_3) (and x_0_4 x_1_4) (and x_0_5 x_1_5) (and x_0_6 x_1_6) (and x_0_7 x_1_7) (and x_0_8 x_1_8) (and x_0_9 x_1_9) (and x_0_10 x_1_10) (and x_0_11 x_1_11) (and x_0_12 x_1_12) (and x_0_13 x_1_13) (and x_0_14 x_1_14) (and x_0_15 x_1_15)))))

(assert (forall ((x_0_0 Bool) (x_0_1 Bool) (x_0_2 Bool) (x_0_3 Bool) (x_0_4 Bool) (x_0_5 Bool) (x_0_6 Bool) (x_0_7 Bool) (x_0_8 Bool) (x_0_9 Bool) (x_0_10 Bool) (x_0_11 Bool) (x_0_12 Bool) (x_0_13 Bool) (x_0_14 Bool) (x_0_15 Bool) (x_1_0 Bool) (x_1_1 Bool) (x_1_2 Bool) (x_1_3 Bool) (x_1_4 Bool) (x_1_5 Bool) (x_1_6 Bool) (x_1_7 Bool) (x_1_8 Bool) (x_1_9 Bool) (x_1_10 Bool) (x_1_11 Bool) (x_1_12 Bool) (x_1_13 Bool) (x_1_14 Bool) (x_1_15 Bool) )
 (=> (and (NT2 x_0_0 x_0_1 x_0_2 x_0_3 x_0_4 x_0_5 x_0_6 x_0_7 x_0_8 x_0_9 x_0_10 x_0_11 x_0_12 x_0_13 x_0_14 x_0_15) (NT2 x_1_0 x_1_1 x_1_2 x_1_3 x_1_4 x_1_5 x_1_6 x_1_7 x_1_8 x_1_9 x_1_10 x_1_11 x_1_12 x_1_13 x_1_14 x_1_15) ) (NT2 (or x_0_0 x_1_0) (or x_0_1 x_1_1) (or x_0_2 x_1_2) (or x_0_3 x_1_3) (or x_0_4 x_1_4) (or x_0_5 x_1_5) (or x_0_6 x_1_6) (or x_0_7 x_1_7) (or x_0_8 x_1_8) (or x_0_9 x_1_9) (or x_0_10 x_1_10) (or x_0_11 x_1_11) (or x_0_12 x_1_12) (or x_0_13 x_1_13) (or x_0_14 x_1_14) (or x_0_15 x_1_15)))))

(assert (forall ((x_0_0 Bool) (x_0_1 Bool) (x_0_2 Bool) (x_0_3 Bool) (x_0_4 Bool) (x_0_5 Bool) (x_0_6 Bool) (x_0_7 Bool) (x_0_8 Bool) (x_0_9 Bool) (x_0_10 Bool) (x_0_11 Bool) (x_0_12 Bool) (x_0_13 Bool) (x_0_14 Bool) (x_0_15 Bool) (x_1_0 Int) (x_1_1 Int) (x_1_2 Int) (x_1_3 Int) (x_1_4 Int) (x_1_5 Int) (x_1_6 Int) (x_1_7 Int) (x_1_8 Int) (x_1_9 Int) (x_1_10 Int) (x_1_11 Int) (x_1_12 Int) (x_1_13 Int) (x_1_14 Int) (x_1_15 Int) (x_2_0 Int) (x_2_1 Int) (x_2_2 Int) (x_2_3 Int) (x_2_4 Int) (x_2_5 Int) (x_2_6 Int) (x_2_7 Int) (x_2_8 Int) (x_2_9 Int) (x_2_10 Int) (x_2_11 Int) (x_2_12 Int) (x_2_13 Int) (x_2_14 Int) (x_2_15 Int) )
 (=> (and (NT2 x_0_0 x_0_1 x_0_2 x_0_3 x_0_4 x_0_5 x_0_6 x_0_7 x_0_8 x_0_9 x_0_10 x_0_11 x_0_12 x_0_13 x_0_14 x_0_15) (NT1 x_1_0 x_1_1 x_1_2 x_1_3 x_1_4 x_1_5 x_1_6 x_1_7 x_1_8 x_1_9 x_1_10 x_1_11 x_1_12 x_1_13 x_1_14 x_1_15) (NT1 x_2_0 x_2_1 x_2_2 x_2_3 x_2_4 x_2_5 x_2_6 x_2_7 x_2_8 x_2_9 x_2_10 x_2_11 x_2_12 x_2_13 x_2_14 x_2_15) ) (NT3 (ite x_0_0 x_1_0 x_2_0) (ite x_0_1 x_1_1 x_2_1) (ite x_0_2 x_1_2 x_2_2) (ite x_0_3 x_1_3 x_2_3) (ite x_0_4 x_1_4 x_2_4) (ite x_0_5 x_1_5 x_2_5) (ite x_0_6 x_1_6 x_2_6) (ite x_0_7 x_1_7 x_2_7) (ite x_0_8 x_1_8 x_2_8) (ite x_0_9 x_1_9 x_2_9) (ite x_0_10 x_1_10 x_2_10) (ite x_0_11 x_1_11 x_2_11) (ite x_0_12 x_1_12 x_2_12) (ite x_0_13 x_1_13 x_2_13) (ite x_0_14 x_1_14 x_2_14) (ite x_0_15 x_1_15 x_2_15)))))

(assert (forall ((x_0_0 Int) (x_0_1 Int) (x_0_2 Int) (x_0_3 Int) (x_0_4 Int) (x_0_5 Int) (x_0_6 Int) (x_0_7 Int) (x_0_8 Int) (x_0_9 Int) (x_0_10 Int) (x_0_11 Int) (x_0_12 Int) (x_0_13 Int) (x_0_14 Int) (x_0_15 Int) (x_1_0 Int) (x_1_1 Int) (x_1_2 Int) (x_1_3 Int) (x_1_4 Int) (x_1_5 Int) (x_1_6 Int) (x_1_7 Int) (x_1_8 Int) (x_1_9 Int) (x_1_10 Int) (x_1_11 Int) (x_1_12 Int) (x_1_13 Int) (x_1_14 Int) (x_1_15 Int) )
 (=> (and (NT3 x_0_0 x_0_1 x_0_2 x_0_3 x_0_4 x_0_5 x_0_6 x_0_7 x_0_8 x_0_9 x_0_10 x_0_11 x_0_12 x_0_13 x_0_14 x_0_15) (NT1 x_1_0 x_1_1 x_1_2 x_1_3 x_1_4 x_1_5 x_1_6 x_1_7 x_1_8 x_1_9 x_1_10 x_1_11 x_1_12 x_1_13 x_1_14 x_1_15) ) (NT3 (+ x_0_0 x_1_0) (+ x_0_1 x_1_1) (+ x_0_2 x_1_2) (+ x_0_3 x_1_3) (+ x_0_4 x_1_4) (+ x_0_5 x_1_5) (+ x_0_6 x_1_6) (+ x_0_7 x_1_7) (+ x_0_8 x_1_8) (+ x_0_9 x_1_9) (+ x_0_10 x_1_10) (+ x_0_11 x_1_11) (+ x_0_12 x_1_12) (+ x_0_13 x_1_13) (+ x_0_14 x_1_14) (+ x_0_15 x_1_15)))))

(assert (forall ((x_0_0 Int) (x_0_1 Int) (x_0_2 Int) (x_0_3 Int) (x_0_4 Int) (x_0_5 Int) (x_0_6 Int) (x_0_7 Int) (x_0_8 Int) (x_0_9 Int) (x_0_10 Int) (x_0_11 Int) (x_0_12 Int) (x_0_13 Int) (x_0_14 Int) (x_0_15 Int) (x_1_0 Int) (x_1_1 Int) (x_1_2 Int) (x_1_3 Int) (x_1_4 Int) (x_1_5 Int) (x_1_6 Int) (x_1_7 Int) (x_1_8 Int) (x_1_9 Int) (x_1_10 Int) (x_1_11 Int) (x_1_12 Int) (x_1_13 Int) (x_1_14 Int) (x_1_15 Int) )
 (=> (and (NT4 x_0_0 x_0_1 x_0_2 x_0_3 x_0_4 x_0_5 x_0_6 x_0_7 x_0_8 x_0_9 x_0_10 x_0_11 x_0_12 x_0_13 x_0_14 x_0_15) (NT1 x_1_0 x_1_1 x_1_2 x_1_3 x_1_4 x_1_5 x_1_6 x_1_7 x_1_8 x_1_9 x_1_10 x_1_11 x_1_12 x_1_13 x_1_14 x_1_15) ) (NT4 (+ x_0_0 x_1_0) (+ x_0_1 x_1_1) (+ x_0_2 x_1_2) (+ x_0_3 x_1_3) (+ x_0_4 x_1_4) (+ x_0_5 x_1_5) (+ x_0_6 x_1_6) (+ x_0_7 x_1_7) (+ x_0_8 x_1_8) (+ x_0_9 x_1_9) (+ x_0_10 x_1_10) (+ x_0_11 x_1_11) (+ x_0_12 x_1_12) (+ x_0_13 x_1_13) (+ x_0_14 x_1_14) (+ x_0_15 x_1_15)))))

(assert (forall ((x_0_0 Int) (x_0_1 Int) (x_0_2 Int) (x_0_3 Int) (x_0_4 Int) (x_0_5 Int) (x_0_6 Int) (x_0_7 Int) (x_0_8 Int) (x_0_9 Int) (x_0_10 Int) (x_0_11 Int) (x_0_12 Int) (x_0_13 Int) (x_0_14 Int) (x_0_15 Int) (x_1_0 Int) (x_1_1 Int) (x_1_2 Int) (x_1_3 Int) (x_1_4 Int) (x_1_5 Int) (x_1_6 Int) (x_1_7 Int) (x_1_8 Int) (x_1_9 Int) (x_1_10 Int) (x_1_11 Int) (x_1_12 Int) (x_1_13 Int) (x_1_14 Int) (x_1_15 Int) )
 (=> (and (NT3 x_0_0 x_0_1 x_0_2 x_0_3 x_0_4 x_0_5 x_0_6 x_0_7 x_0_8 x_0_9 x_0_10 x_0_11 x_0_12 x_0_13 x_0_14 x_0_15) (NT3 x_1_0 x_1_1 x_1_2 x_1_3 x_1_4 x_1_5 x_1_6 x_1_7 x_1_8 x_1_9 x_1_10 x_1_11 x_1_12 x_1_13 x_1_14 x_1_15) ) (NT4 (+ x_0_0 x_1_0) (+ x_0_1 x_1_1) (+ x_0_2 x_1_2) (+ x_0_3 x_1_3) (+ x_0_4 x_1_4) (+ x_0_5 x_1_5) (+ x_0_6 x_1_6) (+ x_0_7 x_1_7) (+ x_0_8 x_1_8) (+ x_0_9 x_1_9) (+ x_0_10 x_1_10) (+ x_0_11 x_1_11) (+ x_0_12 x_1_12) (+ x_0_13 x_1_13) (+ x_0_14 x_1_14) (+ x_0_15 x_1_15)))))

(assert (forall ((x_0_0 Bool) (x_0_1 Bool) (x_0_2 Bool) (x_0_3 Bool) (x_0_4 Bool) (x_0_5 Bool) (x_0_6 Bool) (x_0_7 Bool) (x_0_8 Bool) (x_0_9 Bool) (x_0_10 Bool) (x_0_11 Bool) (x_0_12 Bool) (x_0_13 Bool) (x_0_14 Bool) (x_0_15 Bool) (x_1_0 Int) (x_1_1 Int) (x_1_2 Int) (x_1_3 Int) (x_1_4 Int) (x_1_5 Int) (x_1_6 Int) (x_1_7 Int) (x_1_8 Int) (x_1_9 Int) (x_1_10 Int) (x_1_11 Int) (x_1_12 Int) (x_1_13 Int) (x_1_14 Int) (x_1_15 Int) (x_2_0 Int) (x_2_1 Int) (x_2_2 Int) (x_2_3 Int) (x_2_4 Int) (x_2_5 Int) (x_2_6 Int) (x_2_7 Int) (x_2_8 Int) (x_2_9 Int) (x_2_10 Int) (x_2_11 Int) (x_2_12 Int) (x_2_13 Int) (x_2_14 Int) (x_2_15 Int) )
 (=> (and (NT2 x_0_0 x_0_1 x_0_2 x_0_3 x_0_4 x_0_5 x_0_6 x_0_7 x_0_8 x_0_9 x_0_10 x_0_11 x_0_12 x_0_13 x_0_14 x_0_15) (NT3 x_1_0 x_1_1 x_1_2 x_1_3 x_1_4 x_1_5 x_1_6 x_1_7 x_1_8 x_1_9 x_1_10 x_1_11 x_1_12 x_1_13 x_1_14 x_1_15) (NT1 x_2_0 x_2_1 x_2_2 x_2_3 x_2_4 x_2_5 x_2_6 x_2_7 x_2_8 x_2_9 x_2_10 x_2_11 x_2_12 x_2_13 x_2_14 x_2_15) ) (NT4 (ite x_0_0 x_1_0 x_2_0) (ite x_0_1 x_1_1 x_2_1) (ite x_0_2 x_1_2 x_2_2) (ite x_0_3 x_1_3 x_2_3) (ite x_0_4 x_1_4 x_2_4) (ite x_0_5 x_1_5 x_2_5) (ite x_0_6 x_1_6 x_2_6) (ite x_0_7 x_1_7 x_2_7) (ite x_0_8 x_1_8 x_2_8) (ite x_0_9 x_1_9 x_2_9) (ite x_0_10 x_1_10 x_2_10) (ite x_0_11 x_1_11 x_2_11) (ite x_0_12 x_1_12 x_2_12) (ite x_0_13 x_1_13 x_2_13) (ite x_0_14 x_1_14 x_2_14) (ite x_0_15 x_1_15 x_2_15)))))

(assert (forall ((x_0_0 Bool) (x_0_1 Bool) (x_0_2 Bool) (x_0_3 Bool) (x_0_4 Bool) (x_0_5 Bool) (x_0_6 Bool) (x_0_7 Bool) (x_0_8 Bool) (x_0_9 Bool) (x_0_10 Bool) (x_0_11 Bool) (x_0_12 Bool) (x_0_13 Bool) (x_0_14 Bool) (x_0_15 Bool) (x_1_0 Int) (x_1_1 Int) (x_1_2 Int) (x_1_3 Int) (x_1_4 Int) (x_1_5 Int) (x_1_6 Int) (x_1_7 Int) (x_1_8 Int) (x_1_9 Int) (x_1_10 Int) (x_1_11 Int) (x_1_12 Int) (x_1_13 Int) (x_1_14 Int) (x_1_15 Int) (x_2_0 Int) (x_2_1 Int) (x_2_2 Int) (x_2_3 Int) (x_2_4 Int) (x_2_5 Int) (x_2_6 Int) (x_2_7 Int) (x_2_8 Int) (x_2_9 Int) (x_2_10 Int) (x_2_11 Int) (x_2_12 Int) (x_2_13 Int) (x_2_14 Int) (x_2_15 Int) )
 (=> (and (NT5 x_0_0 x_0_1 x_0_2 x_0_3 x_0_4 x_0_5 x_0_6 x_0_7 x_0_8 x_0_9 x_0_10 x_0_11 x_0_12 x_0_13 x_0_14 x_0_15) (NT1 x_1_0 x_1_1 x_1_2 x_1_3 x_1_4 x_1_5 x_1_6 x_1_7 x_1_8 x_1_9 x_1_10 x_1_11 x_1_12 x_1_13 x_1_14 x_1_15) (NT1 x_2_0 x_2_1 x_2_2 x_2_3 x_2_4 x_2_5 x_2_6 x_2_7 x_2_8 x_2_9 x_2_10 x_2_11 x_2_12 x_2_13 x_2_14 x_2_15) ) (NT4 (ite x_0_0 x_1_0 x_2_0) (ite x_0_1 x_1_1 x_2_1) (ite x_0_2 x_1_2 x_2_2) (ite x_0_3 x_1_3 x_2_3) (ite x_0_4 x_1_4 x_2_4) (ite x_0_5 x_1_5 x_2_5) (ite x_0_6 x_1_6 x_2_6) (ite x_0_7 x_1_7 x_2_7) (ite x_0_8 x_1_8 x_2_8) (ite x_0_9 x_1_9 x_2_9) (ite x_0_10 x_1_10 x_2_10) (ite x_0_11 x_1_11 x_2_11) (ite x_0_12 x_1_12 x_2_12) (ite x_0_13 x_1_13 x_2_13) (ite x_0_14 x_1_14 x_2_14) (ite x_0_15 x_1_15 x_2_15)))))

(assert (forall ((x_0_0 Int) (x_0_1 Int) (x_0_2 Int) (x_0_3 Int) (x_0_4 Int) (x_0_5 Int) (x_0_6 Int) (x_0_7 Int) (x_0_8 Int) (x_0_9 Int) (x_0_10 Int) (x_0_11 Int) (x_0_12 Int) (x_0_13 Int) (x_0_14 Int) (x_0_15 Int) (x_1_0 Int) (x_1_1 Int) (x_1_2 Int) (x_1_3 Int) (x_1_4 Int) (x_1_5 Int) (x_1_6 Int) (x_1_7 Int) (x_1_8 Int) (x_1_9 Int) (x_1_10 Int) (x_1_11 Int) (x_1_12 Int) (x_1_13 Int) (x_1_14 Int) (x_1_15 Int) )
 (=> (and (NT3 x_0_0 x_0_1 x_0_2 x_0_3 x_0_4 x_0_5 x_0_6 x_0_7 x_0_8 x_0_9 x_0_10 x_0_11 x_0_12 x_0_13 x_0_14 x_0_15) (NT1 x_1_0 x_1_1 x_1_2 x_1_3 x_1_4 x_1_5 x_1_6 x_1_7 x_1_8 x_1_9 x_1_10 x_1_11 x_1_12 x_1_13 x_1_14 x_1_15) ) (NT5 (<= x_0_0 x_1_0) (<= x_0_1 x_1_1) (<= x_0_2 x_1_2) (<= x_0_3 x_1_3) (<= x_0_4 x_1_4) (<= x_0_5 x_1_5) (<= x_0_6 x_1_6) (<= x_0_7 x_1_7) (<= x_0_8 x_1_8) (<= x_0_9 x_1_9) (<= x_0_10 x_1_10) (<= x_0_11 x_1_11) (<= x_0_12 x_1_12) (<= x_0_13 x_1_13) (<= x_0_14 x_1_14) (<= x_0_15 x_1_15)))))

(assert (forall ((x_0_0 Bool) (x_0_1 Bool) (x_0_2 Bool) (x_0_3 Bool) (x_0_4 Bool) (x_0_5 Bool) (x_0_6 Bool) (x_0_7 Bool) (x_0_8 Bool) (x_0_9 Bool) (x_0_10 Bool) (x_0_11 Bool) (x_0_12 Bool) (x_0_13 Bool) (x_0_14 Bool) (x_0_15 Bool) )
 (=> (and (NT5 x_0_0 x_0_1 x_0_2 x_0_3 x_0_4 x_0_5 x_0_6 x_0_7 x_0_8 x_0_9 x_0_10 x_0_11 x_0_12 x_0_13 x_0_14 x_0_15) ) (NT5 (not x_0_0) (not x_0_1) (not x_0_2) (not x_0_3) (not x_0_4) (not x_0_5) (not x_0_6) (not x_0_7) (not x_0_8) (not x_0_9) (not x_0_10) (not x_0_11) (not x_0_12) (not x_0_13) (not x_0_14) (not x_0_15)))))

(assert (forall ((x_0_0 Bool) (x_0_1 Bool) (x_0_2 Bool) (x_0_3 Bool) (x_0_4 Bool) (x_0_5 Bool) (x_0_6 Bool) (x_0_7 Bool) (x_0_8 Bool) (x_0_9 Bool) (x_0_10 Bool) (x_0_11 Bool) (x_0_12 Bool) (x_0_13 Bool) (x_0_14 Bool) (x_0_15 Bool) (x_1_0 Bool) (x_1_1 Bool) (x_1_2 Bool) (x_1_3 Bool) (x_1_4 Bool) (x_1_5 Bool) (x_1_6 Bool) (x_1_7 Bool) (x_1_8 Bool) (x_1_9 Bool) (x_1_10 Bool) (x_1_11 Bool) (x_1_12 Bool) (x_1_13 Bool) (x_1_14 Bool) (x_1_15 Bool) )
 (=> (and (NT5 x_0_0 x_0_1 x_0_2 x_0_3 x_0_4 x_0_5 x_0_6 x_0_7 x_0_8 x_0_9 x_0_10 x_0_11 x_0_12 x_0_13 x_0_14 x_0_15) (NT2 x_1_0 x_1_1 x_1_2 x_1_3 x_1_4 x_1_5 x_1_6 x_1_7 x_1_8 x_1_9 x_1_10 x_1_11 x_1_12 x_1_13 x_1_14 x_1_15) ) (NT5 (and x_0_0 x_1_0) (and x_0_1 x_1_1) (and x_0_2 x_1_2) (and x_0_3 x_1_3) (and x_0_4 x_1_4) (and x_0_5 x_1_5) (and x_0_6 x_1_6) (and x_0_7 x_1_7) (and x_0_8 x_1_8) (and x_0_9 x_1_9) (and x_0_10 x_1_10) (and x_0_11 x_1_11) (and x_0_12 x_1_12) (and x_0_13 x_1_13) (and x_0_14 x_1_14) (and x_0_15 x_1_15)))))

(assert (forall ((x_0_0 Bool) (x_0_1 Bool) (x_0_2 Bool) (x_0_3 Bool) (x_0_4 Bool) (x_0_5 Bool) (x_0_6 Bool) (x_0_7 Bool) (x_0_8 Bool) (x_0_9 Bool) (x_0_10 Bool) (x_0_11 Bool) (x_0_12 Bool) (x_0_13 Bool) (x_0_14 Bool) (x_0_15 Bool) (x_1_0 Bool) (x_1_1 Bool) (x_1_2 Bool) (x_1_3 Bool) (x_1_4 Bool) (x_1_5 Bool) (x_1_6 Bool) (x_1_7 Bool) (x_1_8 Bool) (x_1_9 Bool) (x_1_10 Bool) (x_1_11 Bool) (x_1_12 Bool) (x_1_13 Bool) (x_1_14 Bool) (x_1_15 Bool) )
 (=> (and (NT5 x_0_0 x_0_1 x_0_2 x_0_3 x_0_4 x_0_5 x_0_6 x_0_7 x_0_8 x_0_9 x_0_10 x_0_11 x_0_12 x_0_13 x_0_14 x_0_15) (NT2 x_1_0 x_1_1 x_1_2 x_1_3 x_1_4 x_1_5 x_1_6 x_1_7 x_1_8 x_1_9 x_1_10 x_1_11 x_1_12 x_1_13 x_1_14 x_1_15) ) (NT5 (or x_0_0 x_1_0) (or x_0_1 x_1_1) (or x_0_2 x_1_2) (or x_0_3 x_1_3) (or x_0_4 x_1_4) (or x_0_5 x_1_5) (or x_0_6 x_1_6) (or x_0_7 x_1_7) (or x_0_8 x_1_8) (or x_0_9 x_1_9) (or x_0_10 x_1_10) (or x_0_11 x_1_11) (or x_0_12 x_1_12) (or x_0_13 x_1_13) (or x_0_14 x_1_14) (or x_0_15 x_1_15)))))

(assert (forall ((x_0_0 Int) (x_0_1 Int) (x_0_2 Int) (x_0_3 Int) (x_0_4 Int) (x_0_5 Int) (x_0_6 Int) (x_0_7 Int) (x_0_8 Int) (x_0_9 Int) (x_0_10 Int) (x_0_11 Int) (x_0_12 Int) (x_0_13 Int) (x_0_14 Int) (x_0_15 Int) (x_1_0 Int) (x_1_1 Int) (x_1_2 Int) (x_1_3 Int) (x_1_4 Int) (x_1_5 Int) (x_1_6 Int) (x_1_7 Int) (x_1_8 Int) (x_1_9 Int) (x_1_10 Int) (x_1_11 Int) (x_1_12 Int) (x_1_13 Int) (x_1_14 Int) (x_1_15 Int) )
 (=> (and (NT4 x_0_0 x_0_1 x_0_2 x_0_3 x_0_4 x_0_5 x_0_6 x_0_7 x_0_8 x_0_9 x_0_10 x_0_11 x_0_12 x_0_13 x_0_14 x_0_15) (NT1 x_1_0 x_1_1 x_1_2 x_1_3 x_1_4 x_1_5 x_1_6 x_1_7 x_1_8 x_1_9 x_1_10 x_1_11 x_1_12 x_1_13 x_1_14 x_1_15) ) (NT6 (<= x_0_0 x_1_0) (<= x_0_1 x_1_1) (<= x_0_2 x_1_2) (<= x_0_3 x_1_3) (<= x_0_4 x_1_4) (<= x_0_5 x_1_5) (<= x_0_6 x_1_6) (<= x_0_7 x_1_7) (<= x_0_8 x_1_8) (<= x_0_9 x_1_9) (<= x_0_10 x_1_10) (<= x_0_11 x_1_11) (<= x_0_12 x_1_12) (<= x_0_13 x_1_13) (<= x_0_14 x_1_14) (<= x_0_15 x_1_15)))))

(assert (forall ((x_0_0 Int) (x_0_1 Int) (x_0_2 Int) (x_0_3 Int) (x_0_4 Int) (x_0_5 Int) (x_0_6 Int) (x_0_7 Int) (x_0_8 Int) (x_0_9 Int) (x_0_10 Int) (x_0_11 Int) (x_0_12 Int) (x_0_13 Int) (x_0_14 Int) (x_0_15 Int) (x_1_0 Int) (x_1_1 Int) (x_1_2 Int) (x_1_3 Int) (x_1_4 Int) (x_1_5 Int) (x_1_6 Int) (x_1_7 Int) (x_1_8 Int) (x_1_9 Int) (x_1_10 Int) (x_1_11 Int) (x_1_12 Int) (x_1_13 Int) (x_1_14 Int) (x_1_15 Int) )
 (=> (and (NT3 x_0_0 x_0_1 x_0_2 x_0_3 x_0_4 x_0_5 x_0_6 x_0_7 x_0_8 x_0_9 x_0_10 x_0_11 x_0_12 x_0_13 x_0_14 x_0_15) (NT3 x_1_0 x_1_1 x_1_2 x_1_3 x_1_4 x_1_5 x_1_6 x_1_7 x_1_8 x_1_9 x_1_10 x_1_11 x_1_12 x_1_13 x_1_14 x_1_15) ) (NT6 (<= x_0_0 x_1_0) (<= x_0_1 x_1_1) (<= x_0_2 x_1_2) (<= x_0_3 x_1_3) (<= x_0_4 x_1_4) (<= x_0_5 x_1_5) (<= x_0_6 x_1_6) (<= x_0_7 x_1_7) (<= x_0_8 x_1_8) (<= x_0_9 x_1_9) (<= x_0_10 x_1_10) (<= x_0_11 x_1_11) (<= x_0_12 x_1_12) (<= x_0_13 x_1_13) (<= x_0_14 x_1_14) (<= x_0_15 x_1_15)))))

(assert (forall ((x_0_0 Bool) (x_0_1 Bool) (x_0_2 Bool) (x_0_3 Bool) (x_0_4 Bool) (x_0_5 Bool) (x_0_6 Bool) (x_0_7 Bool) (x_0_8 Bool) (x_0_9 Bool) (x_0_10 Bool) (x_0_11 Bool) (x_0_12 Bool) (x_0_13 Bool) (x_0_14 Bool) (x_0_15 Bool) )
 (=> (and (NT6 x_0_0 x_0_1 x_0_2 x_0_3 x_0_4 x_0_5 x_0_6 x_0_7 x_0_8 x_0_9 x_0_10 x_0_11 x_0_12 x_0_13 x_0_14 x_0_15) ) (NT6 (not x_0_0) (not x_0_1) (not x_0_2) (not x_0_3) (not x_0_4) (not x_0_5) (not x_0_6) (not x_0_7) (not x_0_8) (not x_0_9) (not x_0_10) (not x_0_11) (not x_0_12) (not x_0_13) (not x_0_14) (not x_0_15)))))

(assert (forall ((x_0_0 Bool) (x_0_1 Bool) (x_0_2 Bool) (x_0_3 Bool) (x_0_4 Bool) (x_0_5 Bool) (x_0_6 Bool) (x_0_7 Bool) (x_0_8 Bool) (x_0_9 Bool) (x_0_10 Bool) (x_0_11 Bool) (x_0_12 Bool) (x_0_13 Bool) (x_0_14 Bool) (x_0_15 Bool) (x_1_0 Bool) (x_1_1 Bool) (x_1_2 Bool) (x_1_3 Bool) (x_1_4 Bool) (x_1_5 Bool) (x_1_6 Bool) (x_1_7 Bool) (x_1_8 Bool) (x_1_9 Bool) (x_1_10 Bool) (x_1_11 Bool) (x_1_12 Bool) (x_1_13 Bool) (x_1_14 Bool) (x_1_15 Bool) )
 (=> (and (NT6 x_0_0 x_0_1 x_0_2 x_0_3 x_0_4 x_0_5 x_0_6 x_0_7 x_0_8 x_0_9 x_0_10 x_0_11 x_0_12 x_0_13 x_0_14 x_0_15) (NT2 x_1_0 x_1_1 x_1_2 x_1_3 x_1_4 x_1_5 x_1_6 x_1_7 x_1_8 x_1_9 x_1_10 x_1_11 x_1_12 x_1_13 x_1_14 x_1_15) ) (NT6 (and x_0_0 x_1_0) (and x_0_1 x_1_1) (and x_0_2 x_1_2) (and x_0_3 x_1_3) (and x_0_4 x_1_4) (and x_0_5 x_1_5) (and x_0_6 x_1_6) (and x_0_7 x_1_7) (and x_0_8 x_1_8) (and x_0_9 x_1_9) (and x_0_10 x_1_10) (and x_0_11 x_1_11) (and x_0_12 x_1_12) (and x_0_13 x_1_13) (and x_0_14 x_1_14) (and x_0_15 x_1_15)))))

(assert (forall ((x_0_0 Bool) (x_0_1 Bool) (x_0_2 Bool) (x_0_3 Bool) (x_0_4 Bool) (x_0_5 Bool) (x_0_6 Bool) (x_0_7 Bool) (x_0_8 Bool) (x_0_9 Bool) (x_0_10 Bool) (x_0_11 Bool) (x_0_12 Bool) (x_0_13 Bool) (x_0_14 Bool) (x_0_15 Bool) (x_1_0 Bool) (x_1_1 Bool) (x_1_2 Bool) (x_1_3 Bool) (x_1_4 Bool) (x_1_5 Bool) (x_1_6 Bool) (x_1_7 Bool) (x_1_8 Bool) (x_1_9 Bool) (x_1_10 Bool) (x_1_11 Bool) (x_1_12 Bool) (x_1_13 Bool) (x_1_14 Bool) (x_1_15 Bool) )
 (=> (and (NT6 x_0_0 x_0_1 x_0_2 x_0_3 x_0_4 x_0_5 x_0_6 x_0_7 x_0_8 x_0_9 x_0_10 x_0_11 x_0_12 x_0_13 x_0_14 x_0_15) (NT2 x_1_0 x_1_1 x_1_2 x_1_3 x_1_4 x_1_5 x_1_6 x_1_7 x_1_8 x_1_9 x_1_10 x_1_11 x_1_12 x_1_13 x_1_14 x_1_15) ) (NT6 (or x_0_0 x_1_0) (or x_0_1 x_1_1) (or x_0_2 x_1_2) (or x_0_3 x_1_3) (or x_0_4 x_1_4) (or x_0_5 x_1_5) (or x_0_6 x_1_6) (or x_0_7 x_1_7) (or x_0_8 x_1_8) (or x_0_9 x_1_9) (or x_0_10 x_1_10) (or x_0_11 x_1_11) (or x_0_12 x_1_12) (or x_0_13 x_1_13) (or x_0_14 x_1_14) (or x_0_15 x_1_15)))))

(assert (forall ((x_0_0 Bool) (x_0_1 Bool) (x_0_2 Bool) (x_0_3 Bool) (x_0_4 Bool) (x_0_5 Bool) (x_0_6 Bool) (x_0_7 Bool) (x_0_8 Bool) (x_0_9 Bool) (x_0_10 Bool) (x_0_11 Bool) (x_0_12 Bool) (x_0_13 Bool) (x_0_14 Bool) (x_0_15 Bool) (x_1_0 Bool) (x_1_1 Bool) (x_1_2 Bool) (x_1_3 Bool) (x_1_4 Bool) (x_1_5 Bool) (x_1_6 Bool) (x_1_7 Bool) (x_1_8 Bool) (x_1_9 Bool) (x_1_10 Bool) (x_1_11 Bool) (x_1_12 Bool) (x_1_13 Bool) (x_1_14 Bool) (x_1_15 Bool) )
 (=> (and (NT5 x_0_0 x_0_1 x_0_2 x_0_3 x_0_4 x_0_5 x_0_6 x_0_7 x_0_8 x_0_9 x_0_10 x_0_11 x_0_12 x_0_13 x_0_14 x_0_15) (NT5 x_1_0 x_1_1 x_1_2 x_1_3 x_1_4 x_1_5 x_1_6 x_1_7 x_1_8 x_1_9 x_1_10 x_1_11 x_1_12 x_1_13 x_1_14 x_1_15) ) (NT6 (and x_0_0 x_1_0) (and x_0_1 x_1_1) (and x_0_2 x_1_2) (and x_0_3 x_1_3) (and x_0_4 x_1_4) (and x_0_5 x_1_5) (and x_0_6 x_1_6) (and x_0_7 x_1_7) (and x_0_8 x_1_8) (and x_0_9 x_1_9) (and x_0_10 x_1_10) (and x_0_11 x_1_11) (and x_0_12 x_1_12) (and x_0_13 x_1_13) (and x_0_14 x_1_14) (and x_0_15 x_1_15)))))

(assert (forall ((x_0_0 Bool) (x_0_1 Bool) (x_0_2 Bool) (x_0_3 Bool) (x_0_4 Bool) (x_0_5 Bool) (x_0_6 Bool) (x_0_7 Bool) (x_0_8 Bool) (x_0_9 Bool) (x_0_10 Bool) (x_0_11 Bool) (x_0_12 Bool) (x_0_13 Bool) (x_0_14 Bool) (x_0_15 Bool) (x_1_0 Bool) (x_1_1 Bool) (x_1_2 Bool) (x_1_3 Bool) (x_1_4 Bool) (x_1_5 Bool) (x_1_6 Bool) (x_1_7 Bool) (x_1_8 Bool) (x_1_9 Bool) (x_1_10 Bool) (x_1_11 Bool) (x_1_12 Bool) (x_1_13 Bool) (x_1_14 Bool) (x_1_15 Bool) )
 (=> (and (NT5 x_0_0 x_0_1 x_0_2 x_0_3 x_0_4 x_0_5 x_0_6 x_0_7 x_0_8 x_0_9 x_0_10 x_0_11 x_0_12 x_0_13 x_0_14 x_0_15) (NT5 x_1_0 x_1_1 x_1_2 x_1_3 x_1_4 x_1_5 x_1_6 x_1_7 x_1_8 x_1_9 x_1_10 x_1_11 x_1_12 x_1_13 x_1_14 x_1_15) ) (NT6 (or x_0_0 x_1_0) (or x_0_1 x_1_1) (or x_0_2 x_1_2) (or x_0_3 x_1_3) (or x_0_4 x_1_4) (or x_0_5 x_1_5) (or x_0_6 x_1_6) (or x_0_7 x_1_7) (or x_0_8 x_1_8) (or x_0_9 x_1_9) (or x_0_10 x_1_10) (or x_0_11 x_1_11) (or x_0_12 x_1_12) (or x_0_13 x_1_13) (or x_0_14 x_1_14) (or x_0_15 x_1_15)))))

(assert (forall ((x_0_0 Bool) (x_0_1 Bool) (x_0_2 Bool) (x_0_3 Bool) (x_0_4 Bool) (x_0_5 Bool) (x_0_6 Bool) (x_0_7 Bool) (x_0_8 Bool) (x_0_9 Bool) (x_0_10 Bool) (x_0_11 Bool) (x_0_12 Bool) (x_0_13 Bool) (x_0_14 Bool) (x_0_15 Bool) (x_1_0 Int) (x_1_1 Int) (x_1_2 Int) (x_1_3 Int) (x_1_4 Int) (x_1_5 Int) (x_1_6 Int) (x_1_7 Int) (x_1_8 Int) (x_1_9 Int) (x_1_10 Int) (x_1_11 Int) (x_1_12 Int) (x_1_13 Int) (x_1_14 Int) (x_1_15 Int) (x_2_0 Int) (x_2_1 Int) (x_2_2 Int) (x_2_3 Int) (x_2_4 Int) (x_2_5 Int) (x_2_6 Int) (x_2_7 Int) (x_2_8 Int) (x_2_9 Int) (x_2_10 Int) (x_2_11 Int) (x_2_12 Int) (x_2_13 Int) (x_2_14 Int) (x_2_15 Int) )
 (=> (and (NT2 x_0_0 x_0_1 x_0_2 x_0_3 x_0_4 x_0_5 x_0_6 x_0_7 x_0_8 x_0_9 x_0_10 x_0_11 x_0_12 x_0_13 x_0_14 x_0_15) (NT4 x_1_0 x_1_1 x_1_2 x_1_3 x_1_4 x_1_5 x_1_6 x_1_7 x_1_8 x_1_9 x_1_10 x_1_11 x_1_12 x_1_13 x_1_14 x_1_15) (NT1 x_2_0 x_2_1 x_2_2 x_2_3 x_2_4 x_2_5 x_2_6 x_2_7 x_2_8 x_2_9 x_2_10 x_2_11 x_2_12 x_2_13 x_2_14 x_2_15) ) (NT7 (ite x_0_0 x_1_0 x_2_0) (ite x_0_1 x_1_1 x_2_1) (ite x_0_2 x_1_2 x_2_2) (ite x_0_3 x_1_3 x_2_3) (ite x_0_4 x_1_4 x_2_4) (ite x_0_5 x_1_5 x_2_5) (ite x_0_6 x_1_6 x_2_6) (ite x_0_7 x_1_7 x_2_7) (ite x_0_8 x_1_8 x_2_8) (ite x_0_9 x_1_9 x_2_9) (ite x_0_10 x_1_10 x_2_10) (ite x_0_11 x_1_11 x_2_11) (ite x_0_12 x_1_12 x_2_12) (ite x_0_13 x_1_13 x_2_13) (ite x_0_14 x_1_14 x_2_14) (ite x_0_15 x_1_15 x_2_15)))))

(assert (forall ((x_0_0 Bool) (x_0_1 Bool) (x_0_2 Bool) (x_0_3 Bool) (x_0_4 Bool) (x_0_5 Bool) (x_0_6 Bool) (x_0_7 Bool) (x_0_8 Bool) (x_0_9 Bool) (x_0_10 Bool) (x_0_11 Bool) (x_0_12 Bool) (x_0_13 Bool) (x_0_14 Bool) (x_0_15 Bool) (x_1_0 Int) (x_1_1 Int) (x_1_2 Int) (x_1_3 Int) (x_1_4 Int) (x_1_5 Int) (x_1_6 Int) (x_1_7 Int) (x_1_8 Int) (x_1_9 Int) (x_1_10 Int) (x_1_11 Int) (x_1_12 Int) (x_1_13 Int) (x_1_14 Int) (x_1_15 Int) (x_2_0 Int) (x_2_1 Int) (x_2_2 Int) (x_2_3 Int) (x_2_4 Int) (x_2_5 Int) (x_2_6 Int) (x_2_7 Int) (x_2_8 Int) (x_2_9 Int) (x_2_10 Int) (x_2_11 Int) (x_2_12 Int) (x_2_13 Int) (x_2_14 Int) (x_2_15 Int) )
 (=> (and (NT6 x_0_0 x_0_1 x_0_2 x_0_3 x_0_4 x_0_5 x_0_6 x_0_7 x_0_8 x_0_9 x_0_10 x_0_11 x_0_12 x_0_13 x_0_14 x_0_15) (NT1 x_1_0 x_1_1 x_1_2 x_1_3 x_1_4 x_1_5 x_1_6 x_1_7 x_1_8 x_1_9 x_1_10 x_1_11 x_1_12 x_1_13 x_1_14 x_1_15) (NT1 x_2_0 x_2_1 x_2_2 x_2_3 x_2_4 x_2_5 x_2_6 x_2_7 x_2_8 x_2_9 x_2_10 x_2_11 x_2_12 x_2_13 x_2_14 x_2_15) ) (NT7 (ite x_0_0 x_1_0 x_2_0) (ite x_0_1 x_1_1 x_2_1) (ite x_0_2 x_1_2 x_2_2) (ite x_0_3 x_1_3 x_2_3) (ite x_0_4 x_1_4 x_2_4) (ite x_0_5 x_1_5 x_2_5) (ite x_0_6 x_1_6 x_2_6) (ite x_0_7 x_1_7 x_2_7) (ite x_0_8 x_1_8 x_2_8) (ite x_0_9 x_1_9 x_2_9) (ite x_0_10 x_1_10 x_2_10) (ite x_0_11 x_1_11 x_2_11) (ite x_0_12 x_1_12 x_2_12) (ite x_0_13 x_1_13 x_2_13) (ite x_0_14 x_1_14 x_2_14) (ite x_0_15 x_1_15 x_2_15)))))

(assert (forall ((x_0_0 Int) (x_0_1 Int) (x_0_2 Int) (x_0_3 Int) (x_0_4 Int) (x_0_5 Int) (x_0_6 Int) (x_0_7 Int) (x_0_8 Int) (x_0_9 Int) (x_0_10 Int) (x_0_11 Int) (x_0_12 Int) (x_0_13 Int) (x_0_14 Int) (x_0_15 Int) (x_1_0 Int) (x_1_1 Int) (x_1_2 Int) (x_1_3 Int) (x_1_4 Int) (x_1_5 Int) (x_1_6 Int) (x_1_7 Int) (x_1_8 Int) (x_1_9 Int) (x_1_10 Int) (x_1_11 Int) (x_1_12 Int) (x_1_13 Int) (x_1_14 Int) (x_1_15 Int) )
 (=> (and (NT7 x_0_0 x_0_1 x_0_2 x_0_3 x_0_4 x_0_5 x_0_6 x_0_7 x_0_8 x_0_9 x_0_10 x_0_11 x_0_12 x_0_13 x_0_14 x_0_15) (NT1 x_1_0 x_1_1 x_1_2 x_1_3 x_1_4 x_1_5 x_1_6 x_1_7 x_1_8 x_1_9 x_1_10 x_1_11 x_1_12 x_1_13 x_1_14 x_1_15) ) (NT7 (+ x_0_0 x_1_0) (+ x_0_1 x_1_1) (+ x_0_2 x_1_2) (+ x_0_3 x_1_3) (+ x_0_4 x_1_4) (+ x_0_5 x_1_5) (+ x_0_6 x_1_6) (+ x_0_7 x_1_7) (+ x_0_8 x_1_8) (+ x_0_9 x_1_9) (+ x_0_10 x_1_10) (+ x_0_11 x_1_11) (+ x_0_12 x_1_12) (+ x_0_13 x_1_13) (+ x_0_14 x_1_14) (+ x_0_15 x_1_15)))))


(assert (forall ( (x_0 Int)  (x_1 Int)  (x_2 Int)  (x_3 Int)  (x_4 Int)  (x_5 Int)  (x_6 Int)  (x_7 Int)  (x_8 Int)  (x_9 Int)  (x_10 Int)  (x_11 Int)  (x_12 Int)  (x_13 Int)  (x_14 Int)  (x_15 Int) )
	(=> (Start  x_0  x_1  x_2  x_3  x_4  x_5  x_6  x_7  x_8  x_9  x_10  x_11  x_12  x_13  x_14  x_15 ) (not (and
		(= x_0 0)
		(= x_1 1)
		(= x_2 1)
		(= x_3 0)
		(= x_4 0)
		(= x_5 0)
		(= x_6 2)
		(= x_7 0)
		(= x_8 0)
		(= x_9 1)
		(= x_10 2)
		(= x_11 1)
		(= x_12 0)
		(= x_13 -1)
		(= x_14 2)
		(= x_15 1)
)))))
(check-sat)